p cnf 12 50 
9 -12 11 0
-11 -3 -1 0
-10 -5 -11 0
11 10 -12 0
-5 -3 -9 0
11 8 12 0
5 -3 1 0
11 10 -9 0
-1 10 12 0
7 11 10 0
-10 -1 11 0
5 -11 -7 0
8 -1 2 0
5 -3 7 0
4 -1 10 0
2 9 -12 0
-6 -3 7 0
1 5 11 0
-2 9 -5 0
-4 8 5 0
-5 -10 2 0
-7 -10 12 0
-8 9 7 0
11 8 10 0
2 5 12 0
5 -4 8 0
2 -11 -5 0
2 10 -6 0
-8 -2 -3 0
1 12 -7 0
-12 -2 5 0
9 -12 -2 0
6 4 -10 0
1 12 -9 0
-4 10 -2 0
-3 12 8 0
-2 -5 7 0
-3 -11 12 0
-7 1 2 0
-3 11 -4 0
-4 -2 -12 0
4 -9 -2 0
12 7 -10 0
8 -9 6 0
-12 4 -3 0
2 9 -5 0
-10 -2 11 0
8 -3 -2 0
-1 -7 -10 0
-6 12 7 0
